*logFile
951 490
1215 486
1221 375
-1
268 84 272 403 329 399 329 504 849 505 854 726 1231 721 1232 505 1577 504 1576 77 -1 
1231 473 1231 111 1546 111 1551 468 -1 
879 111 1208 113 1209 468 880 472 -1 
882 505 1209 509 1211 703 884 700 -1 
306 111 852 106 852 475 385 472 380 295 304 277 -1 
